NAME          COPTPROB
OBJSENSE
  MIN
ROWS
 N  __OBJ___
 L  C8      
 L  C11     
 L  C73     
 L  C90     
 L  C99     
 L  C103    
 L  C126    
 L  C148    
 L  C152    
 L  C156    
COLUMNS
    MARKER    'MARKER'                 'INTORG'
    x8        __OBJ___  695
    x8        C103      -1
    x8        C156      -1
    x17       __OBJ___  789
    x17       C11       -1
    x17       C90       -1
    x19       __OBJ___  975
    x19       C8        -1
    x19       C152      -1
    x69       __OBJ___  488
    x69       C126      -1
    x69       C148      -1
    x130      __OBJ___  150
    x130      C148      -1
    x133      __OBJ___  519
    x133      C90       -1
    x133      C126      -1
    x207      __OBJ___  372
    x207      C99       -1
    x207      C103      -1
    x212      __OBJ___  341
    x212      C99       -1
    x220      __OBJ___  408
    x220      C8        -1
    x220      C11       -1
    x260      __OBJ___  665
    x260      C73       -1
    x260      C156      -1
    x279      __OBJ___  272
    x279      C103      -1
    x304      __OBJ___  919
    x304      C99       -1
    x304      C152      -1
    x327      __OBJ___  55
    x327      C73       -1
    x381      __OBJ___  186
    x381      C73       -1
    x381      C148      -1
    x392      __OBJ___  77
    x392      C8        -1
    MARKER    'MARKER'                 'INTEND'
RHS
    RHS       __OBJ___  -30093
    RHS       C8        -1
    RHS       C11       -1
    RHS       C73       -1
    RHS       C90       -1
    RHS       C99       -1
    RHS       C103      -1
    RHS       C126      -1
    RHS       C148      -1
    RHS       C152      -1
    RHS       C156      -1
BOUNDS
 UP BOUND     x8        1
 UP BOUND     x17       1
 UP BOUND     x19       1
 UP BOUND     x69       1
 UP BOUND     x130      1
 UP BOUND     x133      1
 UP BOUND     x207      1
 UP BOUND     x212      1
 UP BOUND     x220      1
 UP BOUND     x260      1
 UP BOUND     x279      1
 UP BOUND     x304      1
 UP BOUND     x327      1
 UP BOUND     x381      1
 UP BOUND     x392      1
ENDATA
